outputs/case_409.model.txt
deposit_paid = False
insurance_purchased = False
license_held = True
approved_by_authority = True
agent = False
broker = True
notary = False
agent_or_notary = False
bank_approved_by_authority = False
bank_as_agent = False
bank_as_broker = False
liability_insurance = False
guarantee_insurance = False
duty_of_care_exercised = False
duty_of_loyalty_exercised = False
written_report_provided = False
fee_disclosed = False
fee_charged = False
illegal_operation = False
penalty = False
deposit_and_insurance_required = False
bank_permitted = False
business_allowed = False
insurance_type_required = False
broker_duty_of_care = False
broker_report_and_fee_disclosure = False
license_required = True
unlicensed_operation = False